20 67 157
1 3 3
1 11 3
1 12 1
1 13 5
1 15 5
1 17 3
2 3 1
2 7 3
2 11 3
2 12 1
2 13 4
3 10 1
3 13 4
3 15 4
4 7 5
4 9 1
4 10 2
4 13 3
4 14 4
4 15 4
5 11 4
5 12 1
5 13 5
5 15 2
5 16 5
6 7 1
6 8 5
6 9 5
6 10 2
6 11 4
6 14 3
6 15 4
6 18 1
7 8 2
7 10 2
7 18 2
7 19 2
7 20 3
8 10 5
8 11 1
8 15 2
8 17 1
8 19 2
9 15 1
9 16 2
10 17 2
10 18 3
11 13 3
11 16 3
11 17 4
11 18 5
12 13 2
12 14 5
12 16 1
12 17 1
12 18 4
12 19 5
13 17 1
13 18 3
13 19 2
13 20 5
14 17 2
15 17 4
16 17 3
16 19 5
16 20 2
19 20 5
